112034.07
24 25 34 33 32 26 27 12 17 16 13 10 11 28 31 29 30 8 9 5 6 7 61 62 58 59 60 38 37 36 39 40 44 45 43 41 42 57 56 68 67 63 64 4 15 14 3 65 66 69 70 71 72 73 55 53 52 51 35 50 49 46 47 48 54 74 75 0 1 2 21 20 22 23 19 18